c FILE: queen13_13.col
c Translated from Stanford GraphBase File: queen13_13.gb
c Stanford GraphBase ID: gunion(board(13,13,0,0,-1,0,0),board(13,13,0,0,-2,0,0),0,0)
p edge 169 6656
b 13
e 2 1
e 3 1
e 3 2
e 4 1
e 4 2
e 4 3
e 5 1
e 5 2
e 5 3
e 5 4
e 6 1
e 6 2
e 6 3
e 6 4
e 6 5
e 7 1
e 7 2
e 7 3
e 7 4
e 7 5
e 7 6
e 8 1
e 8 2
e 8 3
e 8 4
e 8 5
e 8 6
e 8 7
e 9 1
e 9 2
e 9 3
e 9 4
e 9 5
e 9 6
e 9 7
e 9 8
e 10 1
e 10 2
e 10 3
e 10 4
e 10 5
e 10 6
e 10 7
e 10 8
e 10 9
e 11 1
e 11 2
e 11 3
e 11 4
e 11 5
e 11 6
e 11 7
e 11 8
e 11 9
e 11 10
e 12 1
e 12 2
e 12 3
e 12 4
e 12 5
e 12 6
e 12 7
e 12 8
e 12 9
e 12 10
e 12 11
e 13 1
e 13 2
e 13 3
e 13 4
e 13 5
e 13 6
e 13 7
e 13 8
e 13 9
e 13 10
e 13 11
e 13 12
e 14 1
e 14 2
e 15 1
e 15 2
e 15 3
e 15 14
e 16 2
e 16 3
e 16 4
e 16 14
e 16 15
e 17 3
e 17 4
e 17 5
e 17 14
e 17 15
e 17 16
e 18 4
e 18 5
e 18 6
e 18 14
e 18 15
e 18 16
e 18 17
e 19 5
e 19 6
e 19 7
e 19 14
e 19 15
e 19 16
e 19 17
e 19 18
e 20 6
e 20 7
e 20 8
e 20 14
e 20 15
e 20 16
e 20 17
e 20 18
e 20 19
e 21 7
e 21 8
e 21 9
e 21 14
e 21 15
e 21 16
e 21 17
e 21 18
e 21 19
e 21 20
e 22 8
e 22 9
e 22 10
e 22 14
e 22 15
e 22 16
e 22 17
e 22 18
e 22 19
e 22 20
e 22 21
e 23 9
e 23 10
e 23 11
e 23 14
e 23 15
e 23 16
e 23 17
e 23 18
e 23 19
e 23 20
e 23 21
e 23 22
e 24 10
e 24 11
e 24 12
e 24 14
e 24 15
e 24 16
e 24 17
e 24 18
e 24 19
e 24 20
e 24 21
e 24 22
e 24 23
e 25 11
e 25 12
e 25 13
e 25 14
e 25 15
e 25 16
e 25 17
e 25 18
e 25 19
e 25 20
e 25 21
e 25 22
e 25 23
e 25 24
e 26 12
e 26 13
e 26 14
e 26 15
e 26 16
e 26 17
e 26 18
e 26 19
e 26 20
e 26 21
e 26 22
e 26 23
e 26 24
e 26 25
e 27 1
e 27 3
e 27 14
e 27 15
e 28 2
e 28 4
e 28 14
e 28 15
e 28 16
e 28 27
e 29 1
e 29 3
e 29 5
e 29 15
e 29 16
e 29 17
e 29 27
e 29 28
e 30 2
e 30 4
e 30 6
e 30 16
e 30 17
e 30 18
e 30 27
e 30 28
e 30 29
e 31 3
e 31 5
e 31 7
e 31 17
e 31 18
e 31 19
e 31 27
e 31 28
e 31 29
e 31 30
e 32 4
e 32 6
e 32 8
e 32 18
e 32 19
e 32 20
e 32 27
e 32 28
e 32 29
e 32 30
e 32 31
e 33 5
e 33 7
e 33 9
e 33 19
e 33 20
e 33 21
e 33 27
e 33 28
e 33 29
e 33 30
e 33 31
e 33 32
e 34 6
e 34 8
e 34 10
e 34 20
e 34 21
e 34 22
e 34 27
e 34 28
e 34 29
e 34 30
e 34 31
e 34 32
e 34 33
e 35 7
e 35 9
e 35 11
e 35 21
e 35 22
e 35 23
e 35 27
e 35 28
e 35 29
e 35 30
e 35 31
e 35 32
e 35 33
e 35 34
e 36 8
e 36 10
e 36 12
e 36 22
e 36 23
e 36 24
e 36 27
e 36 28
e 36 29
e 36 30
e 36 31
e 36 32
e 36 33
e 36 34
e 36 35
e 37 9
e 37 11
e 37 13
e 37 23
e 37 24
e 37 25
e 37 27
e 37 28
e 37 29
e 37 30
e 37 31
e 37 32
e 37 33
e 37 34
e 37 35
e 37 36
e 38 10
e 38 12
e 38 24
e 38 25
e 38 26
e 38 27
e 38 28
e 38 29
e 38 30
e 38 31
e 38 32
e 38 33
e 38 34
e 38 35
e 38 36
e 38 37
e 39 11
e 39 13
e 39 25
e 39 26
e 39 27
e 39 28
e 39 29
e 39 30
e 39 31
e 39 32
e 39 33
e 39 34
e 39 35
e 39 36
e 39 37
e 39 38
e 40 1
e 40 4
e 40 14
e 40 16
e 40 27
e 40 28
e 41 2
e 41 5
e 41 15
e 41 17
e 41 27
e 41 28
e 41 29
e 41 40
e 42 3
e 42 6
e 42 14
e 42 16
e 42 18
e 42 28
e 42 29
e 42 30
e 42 40
e 42 41
e 43 1
e 43 4
e 43 7
e 43 15
e 43 17
e 43 19
e 43 29
e 43 30
e 43 31
e 43 40
e 43 41
e 43 42
e 44 2
e 44 5
e 44 8
e 44 16
e 44 18
e 44 20
e 44 30
e 44 31
e 44 32
e 44 40
e 44 41
e 44 42
e 44 43
e 45 3
e 45 6
e 45 9
e 45 17
e 45 19
e 45 21
e 45 31
e 45 32
e 45 33
e 45 40
e 45 41
e 45 42
e 45 43
e 45 44
e 46 4
e 46 7
e 46 10
e 46 18
e 46 20
e 46 22
e 46 32
e 46 33
e 46 34
e 46 40
e 46 41
e 46 42
e 46 43
e 46 44
e 46 45
e 47 5
e 47 8
e 47 11
e 47 19
e 47 21
e 47 23
e 47 33
e 47 34
e 47 35
e 47 40
e 47 41
e 47 42
e 47 43
e 47 44
e 47 45
e 47 46
e 48 6
e 48 9
e 48 12
e 48 20
e 48 22
e 48 24
e 48 34
e 48 35
e 48 36
e 48 40
e 48 41
e 48 42
e 48 43
e 48 44
e 48 45
e 48 46
e 48 47
e 49 7
e 49 10
e 49 13
e 49 21
e 49 23
e 49 25
e 49 35
e 49 36
e 49 37
e 49 40
e 49 41
e 49 42
e 49 43
e 49 44
e 49 45
e 49 46
e 49 47
e 49 48
e 50 8
e 50 11
e 50 22
e 50 24
e 50 26
e 50 36
e 50 37
e 50 38
e 50 40
e 50 41
e 50 42
e 50 43
e 50 44
e 50 45
e 50 46
e 50 47
e 50 48
e 50 49
e 51 9
e 51 12
e 51 23
e 51 25
e 51 37
e 51 38
e 51 39
e 51 40
e 51 41
e 51 42
e 51 43
e 51 44
e 51 45
e 51 46
e 51 47
e 51 48
e 51 49
e 51 50
e 52 10
e 52 13
e 52 24
e 52 26
e 52 38
e 52 39
e 52 40
e 52 41
e 52 42
e 52 43
e 52 44
e 52 45
e 52 46
e 52 47
e 52 48
e 52 49
e 52 50
e 52 51
e 53 1
e 53 5
e 53 14
e 53 17
e 53 27
e 53 29
e 53 40
e 53 41
e 54 2
e 54 6
e 54 15
e 54 18
e 54 28
e 54 30
e 54 40
e 54 41
e 54 42
e 54 53
e 55 3
e 55 7
e 55 16
e 55 19
e 55 27
e 55 29
e 55 31
e 55 41
e 55 42
e 55 43
e 55 53
e 55 54
e 56 4
e 56 8
e 56 14
e 56 17
e 56 20
e 56 28
e 56 30
e 56 32
e 56 42
e 56 43
e 56 44
e 56 53
e 56 54
e 56 55
e 57 1
e 57 5
e 57 9
e 57 15
e 57 18
e 57 21
e 57 29
e 57 31
e 57 33
e 57 43
e 57 44
e 57 45
e 57 53
e 57 54
e 57 55
e 57 56
e 58 2
e 58 6
e 58 10
e 58 16
e 58 19
e 58 22
e 58 30
e 58 32
e 58 34
e 58 44
e 58 45
e 58 46
e 58 53
e 58 54
e 58 55
e 58 56
e 58 57
e 59 3
e 59 7
e 59 11
e 59 17
e 59 20
e 59 23
e 59 31
e 59 33
e 59 35
e 59 45
e 59 46
e 59 47
e 59 53
e 59 54
e 59 55
e 59 56
e 59 57
e 59 58
e 60 4
e 60 8
e 60 12
e 60 18
e 60 21
e 60 24
e 60 32
e 60 34
e 60 36
e 60 46
e 60 47
e 60 48
e 60 53
e 60 54
e 60 55
e 60 56
e 60 57
e 60 58
e 60 59
e 61 5
e 61 9
e 61 13
e 61 19
e 61 22
e 61 25
e 61 33
e 61 35
e 61 37
e 61 47
e 61 48
e 61 49
e 61 53
e 61 54
e 61 55
e 61 56
e 61 57
e 61 58
e 61 59
e 61 60
e 62 6
e 62 10
e 62 20
e 62 23
e 62 26
e 62 34
e 62 36
e 62 38
e 62 48
e 62 49
e 62 50
e 62 53
e 62 54
e 62 55
e 62 56
e 62 57
e 62 58
e 62 59
e 62 60
e 62 61
e 63 7
e 63 11
e 63 21
e 63 24
e 63 35
e 63 37
e 63 39
e 63 49
e 63 50
e 63 51
e 63 53
e 63 54
e 63 55
e 63 56
e 63 57
e 63 58
e 63 59
e 63 60
e 63 61
e 63 62
e 64 8
e 64 12
e 64 22
e 64 25
e 64 36
e 64 38
e 64 50
e 64 51
e 64 52
e 64 53
e 64 54
e 64 55
e 64 56
e 64 57
e 64 58
e 64 59
e 64 60
e 64 61
e 64 62
e 64 63
e 65 9
e 65 13
e 65 23
e 65 26
e 65 37
e 65 39
e 65 51
e 65 52
e 65 53
e 65 54
e 65 55
e 65 56
e 65 57
e 65 58
e 65 59
e 65 60
e 65 61
e 65 62
e 65 63
e 65 64
e 66 1
e 66 6
e 66 14
e 66 18
e 66 27
e 66 30
e 66 40
e 66 42
e 66 53
e 66 54
e 67 2
e 67 7
e 67 15
e 67 19
e 67 28
e 67 31
e 67 41
e 67 43
e 67 53
e 67 54
e 67 55
e 67 66
e 68 3
e 68 8
e 68 16
e 68 20
e 68 29
e 68 32
e 68 40
e 68 42
e 68 44
e 68 54
e 68 55
e 68 56
e 68 66
e 68 67
e 69 4
e 69 9
e 69 17
e 69 21
e 69 27
e 69 30
e 69 33
e 69 41
e 69 43
e 69 45
e 69 55
e 69 56
e 69 57
e 69 66
e 69 67
e 69 68
e 70 5
e 70 10
e 70 14
e 70 18
e 70 22
e 70 28
e 70 31
e 70 34
e 70 42
e 70 44
e 70 46
e 70 56
e 70 57
e 70 58
e 70 66
e 70 67
e 70 68
e 70 69
e 71 1
e 71 6
e 71 11
e 71 15
e 71 19
e 71 23
e 71 29
e 71 32
e 71 35
e 71 43
e 71 45
e 71 47
e 71 57
e 71 58
e 71 59
e 71 66
e 71 67
e 71 68
e 71 69
e 71 70
e 72 2
e 72 7
e 72 12
e 72 16
e 72 20
e 72 24
e 72 30
e 72 33
e 72 36
e 72 44
e 72 46
e 72 48
e 72 58
e 72 59
e 72 60
e 72 66
e 72 67
e 72 68
e 72 69
e 72 70
e 72 71
e 73 3
e 73 8
e 73 13
e 73 17
e 73 21
e 73 25
e 73 31
e 73 34
e 73 37
e 73 45
e 73 47
e 73 49
e 73 59
e 73 60
e 73 61
e 73 66
e 73 67
e 73 68
e 73 69
e 73 70
e 73 71
e 73 72
e 74 4
e 74 9
e 74 18
e 74 22
e 74 26
e 74 32
e 74 35
e 74 38
e 74 46
e 74 48
e 74 50
e 74 60
e 74 61
e 74 62
e 74 66
e 74 67
e 74 68
e 74 69
e 74 70
e 74 71
e 74 72
e 74 73
e 75 5
e 75 10
e 75 19
e 75 23
e 75 33
e 75 36
e 75 39
e 75 47
e 75 49
e 75 51
e 75 61
e 75 62
e 75 63
e 75 66
e 75 67
e 75 68
e 75 69
e 75 70
e 75 71
e 75 72
e 75 73
e 75 74
e 76 6
e 76 11
e 76 20
e 76 24
e 76 34
e 76 37
e 76 48
e 76 50
e 76 52
e 76 62
e 76 63
e 76 64
e 76 66
e 76 67
e 76 68
e 76 69
e 76 70
e 76 71
e 76 72
e 76 73
e 76 74
e 76 75
e 77 7
e 77 12
e 77 21
e 77 25
e 77 35
e 77 38
e 77 49
e 77 51
e 77 63
e 77 64
e 77 65
e 77 66
e 77 67
e 77 68
e 77 69
e 77 70
e 77 71
e 77 72
e 77 73
e 77 74
e 77 75
e 77 76
e 78 8
e 78 13
e 78 22
e 78 26
e 78 36
e 78 39
e 78 50
e 78 52
e 78 64
e 78 65
e 78 66
e 78 67
e 78 68
e 78 69
e 78 70
e 78 71
e 78 72
e 78 73
e 78 74
e 78 75
e 78 76
e 78 77
e 79 1
e 79 7
e 79 14
e 79 19
e 79 27
e 79 31
e 79 40
e 79 43
e 79 53
e 79 55
e 79 66
e 79 67
e 80 2
e 80 8
e 80 15
e 80 20
e 80 28
e 80 32
e 80 41
e 80 44
e 80 54
e 80 56
e 80 66
e 80 67
e 80 68
e 80 79
e 81 3
e 81 9
e 81 16
e 81 21
e 81 29
e 81 33
e 81 42
e 81 45
e 81 53
e 81 55
e 81 57
e 81 67
e 81 68
e 81 69
e 81 79
e 81 80
e 82 4
e 82 10
e 82 17
e 82 22
e 82 30
e 82 34
e 82 40
e 82 43
e 82 46
e 82 54
e 82 56
e 82 58
e 82 68
e 82 69
e 82 70
e 82 79
e 82 80
e 82 81
e 83 5
e 83 11
e 83 18
e 83 23
e 83 27
e 83 31
e 83 35
e 83 41
e 83 44
e 83 47
e 83 55
e 83 57
e 83 59
e 83 69
e 83 70
e 83 71
e 83 79
e 83 80
e 83 81
e 83 82
e 84 6
e 84 12
e 84 14
e 84 19
e 84 24
e 84 28
e 84 32
e 84 36
e 84 42
e 84 45
e 84 48
e 84 56
e 84 58
e 84 60
e 84 70
e 84 71
e 84 72
e 84 79
e 84 80
e 84 81
e 84 82
e 84 83
e 85 1
e 85 7
e 85 13
e 85 15
e 85 20
e 85 25
e 85 29
e 85 33
e 85 37
e 85 43
e 85 46
e 85 49
e 85 57
e 85 59
e 85 61
e 85 71
e 85 72
e 85 73
e 85 79
e 85 80
e 85 81
e 85 82
e 85 83
e 85 84
e 86 2
e 86 8
e 86 16
e 86 21
e 86 26
e 86 30
e 86 34
e 86 38
e 86 44
e 86 47
e 86 50
e 86 58
e 86 60
e 86 62
e 86 72
e 86 73
e 86 74
e 86 79
e 86 80
e 86 81
e 86 82
e 86 83
e 86 84
e 86 85
e 87 3
e 87 9
e 87 17
e 87 22
e 87 31
e 87 35
e 87 39
e 87 45
e 87 48
e 87 51
e 87 59
e 87 61
e 87 63
e 87 73
e 87 74
e 87 75
e 87 79
e 87 80
e 87 81
e 87 82
e 87 83
e 87 84
e 87 85
e 87 86
e 88 4
e 88 10
e 88 18
e 88 23
e 88 32
e 88 36
e 88 46
e 88 49
e 88 52
e 88 60
e 88 62
e 88 64
e 88 74
e 88 75
e 88 76
e 88 79
e 88 80
e 88 81
e 88 82
e 88 83
e 88 84
e 88 85
e 88 86
e 88 87
e 89 5
e 89 11
e 89 19
e 89 24
e 89 33
e 89 37
e 89 47
e 89 50
e 89 61
e 89 63
e 89 65
e 89 75
e 89 76
e 89 77
e 89 79
e 89 80
e 89 81
e 89 82
e 89 83
e 89 84
e 89 85
e 89 86
e 89 87
e 89 88
e 90 6
e 90 12
e 90 20
e 90 25
e 90 34
e 90 38
e 90 48
e 90 51
e 90 62
e 90 64
e 90 76
e 90 77
e 90 78
e 90 79
e 90 80
e 90 81
e 90 82
e 90 83
e 90 84
e 90 85
e 90 86
e 90 87
e 90 88
e 90 89
e 91 7
e 91 13
e 91 21
e 91 26
e 91 35
e 91 39
e 91 49
e 91 52
e 91 63
e 91 65
e 91 77
e 91 78
e 91 79
e 91 80
e 91 81
e 91 82
e 91 83
e 91 84
e 91 85
e 91 86
e 91 87
e 91 88
e 91 89
e 91 90
e 92 1
e 92 8
e 92 14
e 92 20
e 92 27
e 92 32
e 92 40
e 92 44
e 92 53
e 92 56
e 92 66
e 92 68
e 92 79
e 92 80
e 93 2
e 93 9
e 93 15
e 93 21
e 93 28
e 93 33
e 93 41
e 93 45
e 93 54
e 93 57
e 93 67
e 93 69
e 93 79
e 93 80
e 93 81
e 93 92
e 94 3
e 94 10
e 94 16
e 94 22
e 94 29
e 94 34
e 94 42
e 94 46
e 94 55
e 94 58
e 94 66
e 94 68
e 94 70
e 94 80
e 94 81
e 94 82
e 94 92
e 94 93
e 95 4
e 95 11
e 95 17
e 95 23
e 95 30
e 95 35
e 95 43
e 95 47
e 95 53
e 95 56
e 95 59
e 95 67
e 95 69
e 95 71
e 95 81
e 95 82
e 95 83
e 95 92
e 95 93
e 95 94
e 96 5
e 96 12
e 96 18
e 96 24
e 96 31
e 96 36
e 96 40
e 96 44
e 96 48
e 96 54
e 96 57
e 96 60
e 96 68
e 96 70
e 96 72
e 96 82
e 96 83
e 96 84
e 96 92
e 96 93
e 96 94
e 96 95
e 97 6
e 97 13
e 97 19
e 97 25
e 97 27
e 97 32
e 97 37
e 97 41
e 97 45
e 97 49
e 97 55
e 97 58
e 97 61
e 97 69
e 97 71
e 97 73
e 97 83
e 97 84
e 97 85
e 97 92
e 97 93
e 97 94
e 97 95
e 97 96
e 98 7
e 98 14
e 98 20
e 98 26
e 98 28
e 98 33
e 98 38
e 98 42
e 98 46
e 98 50
e 98 56
e 98 59
e 98 62
e 98 70
e 98 72
e 98 74
e 98 84
e 98 85
e 98 86
e 98 92
e 98 93
e 98 94
e 98 95
e 98 96
e 98 97
e 99 1
e 99 8
e 99 15
e 99 21
e 99 29
e 99 34
e 99 39
e 99 43
e 99 47
e 99 51
e 99 57
e 99 60
e 99 63
e 99 71
e 99 73
e 99 75
e 99 85
e 99 86
e 99 87
e 99 92
e 99 93
e 99 94
e 99 95
e 99 96
e 99 97
e 99 98
e 100 2
e 100 9
e 100 16
e 100 22
e 100 30
e 100 35
e 100 44
e 100 48
e 100 52
e 100 58
e 100 61
e 100 64
e 100 72
e 100 74
e 100 76
e 100 86
e 100 87
e 100 88
e 100 92
e 100 93
e 100 94
e 100 95
e 100 96
e 100 97
e 100 98
e 100 99
e 101 3
e 101 10
e 101 17
e 101 23
e 101 31
e 101 36
e 101 45
e 101 49
e 101 59
e 101 62
e 101 65
e 101 73
e 101 75
e 101 77
e 101 87
e 101 88
e 101 89
e 101 92
e 101 93
e 101 94
e 101 95
e 101 96
e 101 97
e 101 98
e 101 99
e 101 100
e 102 4
e 102 11
e 102 18
e 102 24
e 102 32
e 102 37
e 102 46
e 102 50
e 102 60
e 102 63
e 102 74
e 102 76
e 102 78
e 102 88
e 102 89
e 102 90
e 102 92
e 102 93
e 102 94
e 102 95
e 102 96
e 102 97
e 102 98
e 102 99
e 102 100
e 102 101
e 103 5
e 103 12
e 103 19
e 103 25
e 103 33
e 103 38
e 103 47
e 103 51
e 103 61
e 103 64
e 103 75
e 103 77
e 103 89
e 103 90
e 103 91
e 103 92
e 103 93
e 103 94
e 103 95
e 103 96
e 103 97
e 103 98
e 103 99
e 103 100
e 103 101
e 103 102
e 104 6
e 104 13
e 104 20
e 104 26
e 104 34
e 104 39
e 104 48
e 104 52
e 104 62
e 104 65
e 104 76
e 104 78
e 104 90
e 104 91
e 104 92
e 104 93
e 104 94
e 104 95
e 104 96
e 104 97
e 104 98
e 104 99
e 104 100
e 104 101
e 104 102
e 104 103
e 105 1
e 105 9
e 105 14
e 105 21
e 105 27
e 105 33
e 105 40
e 105 45
e 105 53
e 105 57
e 105 66
e 105 69
e 105 79
e 105 81
e 105 92
e 105 93
e 106 2
e 106 10
e 106 15
e 106 22
e 106 28
e 106 34
e 106 41
e 106 46
e 106 54
e 106 58
e 106 67
e 106 70
e 106 80
e 106 82
e 106 92
e 106 93
e 106 94
e 106 105
e 107 3
e 107 11
e 107 16
e 107 23
e 107 29
e 107 35
e 107 42
e 107 47
e 107 55
e 107 59
e 107 68
e 107 71
e 107 79
e 107 81
e 107 83
e 107 93
e 107 94
e 107 95
e 107 105
e 107 106
e 108 4
e 108 12
e 108 17
e 108 24
e 108 30
e 108 36
e 108 43
e 108 48
e 108 56
e 108 60
e 108 66
e 108 69
e 108 72
e 108 80
e 108 82
e 108 84
e 108 94
e 108 95
e 108 96
e 108 105
e 108 106
e 108 107
e 109 5
e 109 13
e 109 18
e 109 25
e 109 31
e 109 37
e 109 44
e 109 49
e 109 53
e 109 57
e 109 61
e 109 67
e 109 70
e 109 73
e 109 81
e 109 83
e 109 85
e 109 95
e 109 96
e 109 97
e 109 105
e 109 106
e 109 107
e 109 108
e 110 6
e 110 19
e 110 26
e 110 32
e 110 38
e 110 40
e 110 45
e 110 50
e 110 54
e 110 58
e 110 62
e 110 68
e 110 71
e 110 74
e 110 82
e 110 84
e 110 86
e 110 96
e 110 97
e 110 98
e 110 105
e 110 106
e 110 107
e 110 108
e 110 109
e 111 7
e 111 20
e 111 27
e 111 33
e 111 39
e 111 41
e 111 46
e 111 51
e 111 55
e 111 59
e 111 63
e 111 69
e 111 72
e 111 75
e 111 83
e 111 85
e 111 87
e 111 97
e 111 98
e 111 99
e 111 105
e 111 106
e 111 107
e 111 108
e 111 109
e 111 110
e 112 8
e 112 14
e 112 21
e 112 28
e 112 34
e 112 42
e 112 47
e 112 52
e 112 56
e 112 60
e 112 64
e 112 70
e 112 73
e 112 76
e 112 84
e 112 86
e 112 88
e 112 98
e 112 99
e 112 100
e 112 105
e 112 106
e 112 107
e 112 108
e 112 109
e 112 110
e 112 111
e 113 1
e 113 9
e 113 15
e 113 22
e 113 29
e 113 35
e 113 43
e 113 48
e 113 57
e 113 61
e 113 65
e 113 71
e 113 74
e 113 77
e 113 85
e 113 87
e 113 89
e 113 99
e 113 100
e 113 101
e 113 105
e 113 106
e 113 107
e 113 108
e 113 109
e 113 110
e 113 111
e 113 112
e 114 2
e 114 10
e 114 16
e 114 23
e 114 30
e 114 36
e 114 44
e 114 49
e 114 58
e 114 62
e 114 72
e 114 75
e 114 78
e 114 86
e 114 88
e 114 90
e 114 100
e 114 101
e 114 102
e 114 105
e 114 106
e 114 107
e 114 108
e 114 109
e 114 110
e 114 111
e 114 112
e 114 113
e 115 3
e 115 11
e 115 17
e 115 24
e 115 31
e 115 37
e 115 45
e 115 50
e 115 59
e 115 63
e 115 73
e 115 76
e 115 87
e 115 89
e 115 91
e 115 101
e 115 102
e 115 103
e 115 105
e 115 106
e 115 107
e 115 108
e 115 109
e 115 110
e 115 111
e 115 112
e 115 113
e 115 114
e 116 4
e 116 12
e 116 18
e 116 25
e 116 32
e 116 38
e 116 46
e 116 51
e 116 60
e 116 64
e 116 74
e 116 77
e 116 88
e 116 90
e 116 102
e 116 103
e 116 104
e 116 105
e 116 106
e 116 107
e 116 108
e 116 109
e 116 110
e 116 111
e 116 112
e 116 113
e 116 114
e 116 115
e 117 5
e 117 13
e 117 19
e 117 26
e 117 33
e 117 39
e 117 47
e 117 52
e 117 61
e 117 65
e 117 75
e 117 78
e 117 89
e 117 91
e 117 103
e 117 104
e 117 105
e 117 106
e 117 107
e 117 108
e 117 109
e 117 110
e 117 111
e 117 112
e 117 113
e 117 114
e 117 115
e 117 116
e 118 1
e 118 10
e 118 14
e 118 22
e 118 27
e 118 34
e 118 40
e 118 46
e 118 53
e 118 58
e 118 66
e 118 70
e 118 79
e 118 82
e 118 92
e 118 94
e 118 105
e 118 106
e 119 2
e 119 11
e 119 15
e 119 23
e 119 28
e 119 35
e 119 41
e 119 47
e 119 54
e 119 59
e 119 67
e 119 71
e 119 80
e 119 83
e 119 93
e 119 95
e 119 105
e 119 106
e 119 107
e 119 118
e 120 3
e 120 12
e 120 16
e 120 24
e 120 29
e 120 36
e 120 42
e 120 48
e 120 55
e 120 60
e 120 68
e 120 72
e 120 81
e 120 84
e 120 92
e 120 94
e 120 96
e 120 106
e 120 107
e 120 108
e 120 118
e 120 119
e 121 4
e 121 13
e 121 17
e 121 25
e 121 30
e 121 37
e 121 43
e 121 49
e 121 56
e 121 61
e 121 69
e 121 73
e 121 79
e 121 82
e 121 85
e 121 93
e 121 95
e 121 97
e 121 107
e 121 108
e 121 109
e 121 118
e 121 119
e 121 120
e 122 5
e 122 18
e 122 26
e 122 31
e 122 38
e 122 44
e 122 50
e 122 57
e 122 62
e 122 66
e 122 70
e 122 74
e 122 80
e 122 83
e 122 86
e 122 94
e 122 96
e 122 98
e 122 108
e 122 109
e 122 110
e 122 118
e 122 119
e 122 120
e 122 121
e 123 6
e 123 19
e 123 32
e 123 39
e 123 45
e 123 51
e 123 53
e 123 58
e 123 63
e 123 67
e 123 71
e 123 75
e 123 81
e 123 84
e 123 87
e 123 95
e 123 97
e 123 99
e 123 109
e 123 110
e 123 111
e 123 118
e 123 119
e 123 120
e 123 121
e 123 122
e 124 7
e 124 20
e 124 33
e 124 40
e 124 46
e 124 52
e 124 54
e 124 59
e 124 64
e 124 68
e 124 72
e 124 76
e 124 82
e 124 85
e 124 88
e 124 96
e 124 98
e 124 100
e 124 110
e 124 111
e 124 112
e 124 118
e 124 119
e 124 120
e 124 121
e 124 122
e 124 123
e 125 8
e 125 21
e 125 27
e 125 34
e 125 41
e 125 47
e 125 55
e 125 60
e 125 65
e 125 69
e 125 73
e 125 77
e 125 83
e 125 86
e 125 89
e 125 97
e 125 99
e 125 101
e 125 111
e 125 112
e 125 113
e 125 118
e 125 119
e 125 120
e 125 121
e 125 122
e 125 123
e 125 124
e 126 9
e 126 14
e 126 22
e 126 28
e 126 35
e 126 42
e 126 48
e 126 56
e 126 61
e 126 70
e 126 74
e 126 78
e 126 84
e 126 87
e 126 90
e 126 98
e 126 100
e 126 102
e 126 112
e 126 113
e 126 114
e 126 118
e 126 119
e 126 120
e 126 121
e 126 122
e 126 123
e 126 124
e 126 125
e 127 1
e 127 10
e 127 15
e 127 23
e 127 29
e 127 36
e 127 43
e 127 49
e 127 57
e 127 62
e 127 71
e 127 75
e 127 85
e 127 88
e 127 91
e 127 99
e 127 101
e 127 103
e 127 113
e 127 114
e 127 115
e 127 118
e 127 119
e 127 120
e 127 121
e 127 122
e 127 123
e 127 124
e 127 125
e 127 126
e 128 2
e 128 11
e 128 16
e 128 24
e 128 30
e 128 37
e 128 44
e 128 50
e 128 58
e 128 63
e 128 72
e 128 76
e 128 86
e 128 89
e 128 100
e 128 102
e 128 104
e 128 114
e 128 115
e 128 116
e 128 118
e 128 119
e 128 120
e 128 121
e 128 122
e 128 123
e 128 124
e 128 125
e 128 126
e 128 127
e 129 3
e 129 12
e 129 17
e 129 25
e 129 31
e 129 38
e 129 45
e 129 51
e 129 59
e 129 64
e 129 73
e 129 77
e 129 87
e 129 90
e 129 101
e 129 103
e 129 115
e 129 116
e 129 117
e 129 118
e 129 119
e 129 120
e 129 121
e 129 122
e 129 123
e 129 124
e 129 125
e 129 126
e 129 127
e 129 128
e 130 4
e 130 13
e 130 18
e 130 26
e 130 32
e 130 39
e 130 46
e 130 52
e 130 60
e 130 65
e 130 74
e 130 78
e 130 88
e 130 91
e 130 102
e 130 104
e 130 116
e 130 117
e 130 118
e 130 119
e 130 120
e 130 121
e 130 122
e 130 123
e 130 124
e 130 125
e 130 126
e 130 127
e 130 128
e 130 129
e 131 1
e 131 11
e 131 14
e 131 23
e 131 27
e 131 35
e 131 40
e 131 47
e 131 53
e 131 59
e 131 66
e 131 71
e 131 79
e 131 83
e 131 92
e 131 95
e 131 105
e 131 107
e 131 118
e 131 119
e 132 2
e 132 12
e 132 15
e 132 24
e 132 28
e 132 36
e 132 41
e 132 48
e 132 54
e 132 60
e 132 67
e 132 72
e 132 80
e 132 84
e 132 93
e 132 96
e 132 106
e 132 108
e 132 118
e 132 119
e 132 120
e 132 131
e 133 3
e 133 13
e 133 16
e 133 25
e 133 29
e 133 37
e 133 42
e 133 49
e 133 55
e 133 61
e 133 68
e 133 73
e 133 81
e 133 85
e 133 94
e 133 97
e 133 105
e 133 107
e 133 109
e 133 119
e 133 120
e 133 121
e 133 131
e 133 132
e 134 4
e 134 17
e 134 26
e 134 30
e 134 38
e 134 43
e 134 50
e 134 56
e 134 62
e 134 69
e 134 74
e 134 82
e 134 86
e 134 92
e 134 95
e 134 98
e 134 106
e 134 108
e 134 110
e 134 120
e 134 121
e 134 122
e 134 131
e 134 132
e 134 133
e 135 5
e 135 18
e 135 31
e 135 39
e 135 44
e 135 51
e 135 57
e 135 63
e 135 70
e 135 75
e 135 79
e 135 83
e 135 87
e 135 93
e 135 96
e 135 99
e 135 107
e 135 109
e 135 111
e 135 121
e 135 122
e 135 123
e 135 131
e 135 132
e 135 133
e 135 134
e 136 6
e 136 19
e 136 32
e 136 45
e 136 52
e 136 58
e 136 64
e 136 66
e 136 71
e 136 76
e 136 80
e 136 84
e 136 88
e 136 94
e 136 97
e 136 100
e 136 108
e 136 110
e 136 112
e 136 122
e 136 123
e 136 124
e 136 131
e 136 132
e 136 133
e 136 134
e 136 135
e 137 7
e 137 20
e 137 33
e 137 46
e 137 53
e 137 59
e 137 65
e 137 67
e 137 72
e 137 77
e 137 81
e 137 85
e 137 89
e 137 95
e 137 98
e 137 101
e 137 109
e 137 111
e 137 113
e 137 123
e 137 124
e 137 125
e 137 131
e 137 132
e 137 133
e 137 134
e 137 135
e 137 136
e 138 8
e 138 21
e 138 34
e 138 40
e 138 47
e 138 54
e 138 60
e 138 68
e 138 73
e 138 78
e 138 82
e 138 86
e 138 90
e 138 96
e 138 99
e 138 102
e 138 110
e 138 112
e 138 114
e 138 124
e 138 125
e 138 126
e 138 131
e 138 132
e 138 133
e 138 134
e 138 135
e 138 136
e 138 137
e 139 9
e 139 22
e 139 27
e 139 35
e 139 41
e 139 48
e 139 55
e 139 61
e 139 69
e 139 74
e 139 83
e 139 87
e 139 91
e 139 97
e 139 100
e 139 103
e 139 111
e 139 113
e 139 115
e 139 125
e 139 126
e 139 127
e 139 131
e 139 132
e 139 133
e 139 134
e 139 135
e 139 136
e 139 137
e 139 138
e 140 10
e 140 14
e 140 23
e 140 28
e 140 36
e 140 42
e 140 49
e 140 56
e 140 62
e 140 70
e 140 75
e 140 84
e 140 88
e 140 98
e 140 101
e 140 104
e 140 112
e 140 114
e 140 116
e 140 126
e 140 127
e 140 128
e 140 131
e 140 132
e 140 133
e 140 134
e 140 135
e 140 136
e 140 137
e 140 138
e 140 139
e 141 1
e 141 11
e 141 15
e 141 24
e 141 29
e 141 37
e 141 43
e 141 50
e 141 57
e 141 63
e 141 71
e 141 76
e 141 85
e 141 89
e 141 99
e 141 102
e 141 113
e 141 115
e 141 117
e 141 127
e 141 128
e 141 129
e 141 131
e 141 132
e 141 133
e 141 134
e 141 135
e 141 136
e 141 137
e 141 138
e 141 139
e 141 140
e 142 2
e 142 12
e 142 16
e 142 25
e 142 30
e 142 38
e 142 44
e 142 51
e 142 58
e 142 64
e 142 72
e 142 77
e 142 86
e 142 90
e 142 100
e 142 103
e 142 114
e 142 116
e 142 128
e 142 129
e 142 130
e 142 131
e 142 132
e 142 133
e 142 134
e 142 135
e 142 136
e 142 137
e 142 138
e 142 139
e 142 140
e 142 141
e 143 3
e 143 13
e 143 17
e 143 26
e 143 31
e 143 39
e 143 45
e 143 52
e 143 59
e 143 65
e 143 73
e 143 78
e 143 87
e 143 91
e 143 101
e 143 104
e 143 115
e 143 117
e 143 129
e 143 130
e 143 131
e 143 132
e 143 133
e 143 134
e 143 135
e 143 136
e 143 137
e 143 138
e 143 139
e 143 140
e 143 141
e 143 142
e 144 1
e 144 12
e 144 14
e 144 24
e 144 27
e 144 36
e 144 40
e 144 48
e 144 53
e 144 60
e 144 66
e 144 72
e 144 79
e 144 84
e 144 92
e 144 96
e 144 105
e 144 108
e 144 118
e 144 120
e 144 131
e 144 132
e 145 2
e 145 13
e 145 15
e 145 25
e 145 28
e 145 37
e 145 41
e 145 49
e 145 54
e 145 61
e 145 67
e 145 73
e 145 80
e 145 85
e 145 93
e 145 97
e 145 106
e 145 109
e 145 119
e 145 121
e 145 131
e 145 132
e 145 133
e 145 144
e 146 3
e 146 16
e 146 26
e 146 29
e 146 38
e 146 42
e 146 50
e 146 55
e 146 62
e 146 68
e 146 74
e 146 81
e 146 86
e 146 94
e 146 98
e 146 107
e 146 110
e 146 118
e 146 120
e 146 122
e 146 132
e 146 133
e 146 134
e 146 144
e 146 145
e 147 4
e 147 17
e 147 30
e 147 39
e 147 43
e 147 51
e 147 56
e 147 63
e 147 69
e 147 75
e 147 82
e 147 87
e 147 95
e 147 99
e 147 105
e 147 108
e 147 111
e 147 119
e 147 121
e 147 123
e 147 133
e 147 134
e 147 135
e 147 144
e 147 145
e 147 146
e 148 5
e 148 18
e 148 31
e 148 44
e 148 52
e 148 57
e 148 64
e 148 70
e 148 76
e 148 83
e 148 88
e 148 92
e 148 96
e 148 100
e 148 106
e 148 109
e 148 112
e 148 120
e 148 122
e 148 124
e 148 134
e 148 135
e 148 136
e 148 144
e 148 145
e 148 146
e 148 147
e 149 6
e 149 19
e 149 32
e 149 45
e 149 58
e 149 65
e 149 71
e 149 77
e 149 79
e 149 84
e 149 89
e 149 93
e 149 97
e 149 101
e 149 107
e 149 110
e 149 113
e 149 121
e 149 123
e 149 125
e 149 135
e 149 136
e 149 137
e 149 144
e 149 145
e 149 146
e 149 147
e 149 148
e 150 7
e 150 20
e 150 33
e 150 46
e 150 59
e 150 66
e 150 72
e 150 78
e 150 80
e 150 85
e 150 90
e 150 94
e 150 98
e 150 102
e 150 108
e 150 111
e 150 114
e 150 122
e 150 124
e 150 126
e 150 136
e 150 137
e 150 138
e 150 144
e 150 145
e 150 146
e 150 147
e 150 148
e 150 149
e 151 8
e 151 21
e 151 34
e 151 47
e 151 53
e 151 60
e 151 67
e 151 73
e 151 81
e 151 86
e 151 91
e 151 95
e 151 99
e 151 103
e 151 109
e 151 112
e 151 115
e 151 123
e 151 125
e 151 127
e 151 137
e 151 138
e 151 139
e 151 144
e 151 145
e 151 146
e 151 147
e 151 148
e 151 149
e 151 150
e 152 9
e 152 22
e 152 35
e 152 40
e 152 48
e 152 54
e 152 61
e 152 68
e 152 74
e 152 82
e 152 87
e 152 96
e 152 100
e 152 104
e 152 110
e 152 113
e 152 116
e 152 124
e 152 126
e 152 128
e 152 138
e 152 139
e 152 140
e 152 144
e 152 145
e 152 146
e 152 147
e 152 148
e 152 149
e 152 150
e 152 151
e 153 10
e 153 23
e 153 27
e 153 36
e 153 41
e 153 49
e 153 55
e 153 62
e 153 69
e 153 75
e 153 83
e 153 88
e 153 97
e 153 101
e 153 111
e 153 114
e 153 117
e 153 125
e 153 127
e 153 129
e 153 139
e 153 140
e 153 141
e 153 144
e 153 145
e 153 146
e 153 147
e 153 148
e 153 149
e 153 150
e 153 151
e 153 152
e 154 11
e 154 14
e 154 24
e 154 28
e 154 37
e 154 42
e 154 50
e 154 56
e 154 63
e 154 70
e 154 76
e 154 84
e 154 89
e 154 98
e 154 102
e 154 112
e 154 115
e 154 126
e 154 128
e 154 130
e 154 140
e 154 141
e 154 142
e 154 144
e 154 145
e 154 146
e 154 147
e 154 148
e 154 149
e 154 150
e 154 151
e 154 152
e 154 153
e 155 1
e 155 12
e 155 15
e 155 25
e 155 29
e 155 38
e 155 43
e 155 51
e 155 57
e 155 64
e 155 71
e 155 77
e 155 85
e 155 90
e 155 99
e 155 103
e 155 113
e 155 116
e 155 127
e 155 129
e 155 141
e 155 142
e 155 143
e 155 144
e 155 145
e 155 146
e 155 147
e 155 148
e 155 149
e 155 150
e 155 151
e 155 152
e 155 153
e 155 154
e 156 2
e 156 13
e 156 16
e 156 26
e 156 30
e 156 39
e 156 44
e 156 52
e 156 58
e 156 65
e 156 72
e 156 78
e 156 86
e 156 91
e 156 100
e 156 104
e 156 114
e 156 117
e 156 128
e 156 130
e 156 142
e 156 143
e 156 144
e 156 145
e 156 146
e 156 147
e 156 148
e 156 149
e 156 150
e 156 151
e 156 152
e 156 153
e 156 154
e 156 155
e 157 1
e 157 13
e 157 14
e 157 25
e 157 27
e 157 37
e 157 40
e 157 49
e 157 53
e 157 61
e 157 66
e 157 73
e 157 79
e 157 85
e 157 92
e 157 97
e 157 105
e 157 109
e 157 118
e 157 121
e 157 131
e 157 133
e 157 144
e 157 145
e 158 2
e 158 15
e 158 26
e 158 28
e 158 38
e 158 41
e 158 50
e 158 54
e 158 62
e 158 67
e 158 74
e 158 80
e 158 86
e 158 93
e 158 98
e 158 106
e 158 110
e 158 119
e 158 122
e 158 132
e 158 134
e 158 144
e 158 145
e 158 146
e 158 157
e 159 3
e 159 16
e 159 29
e 159 39
e 159 42
e 159 51
e 159 55
e 159 63
e 159 68
e 159 75
e 159 81
e 159 87
e 159 94
e 159 99
e 159 107
e 159 111
e 159 120
e 159 123
e 159 131
e 159 133
e 159 135
e 159 145
e 159 146
e 159 147
e 159 157
e 159 158
e 160 4
e 160 17
e 160 30
e 160 43
e 160 52
e 160 56
e 160 64
e 160 69
e 160 76
e 160 82
e 160 88
e 160 95
e 160 100
e 160 108
e 160 112
e 160 118
e 160 121
e 160 124
e 160 132
e 160 134
e 160 136
e 160 146
e 160 147
e 160 148
e 160 157
e 160 158
e 160 159
e 161 5
e 161 18
e 161 31
e 161 44
e 161 57
e 161 65
e 161 70
e 161 77
e 161 83
e 161 89
e 161 96
e 161 101
e 161 105
e 161 109
e 161 113
e 161 119
e 161 122
e 161 125
e 161 133
e 161 135
e 161 137
e 161 147
e 161 148
e 161 149
e 161 157
e 161 158
e 161 159
e 161 160
e 162 6
e 162 19
e 162 32
e 162 45
e 162 58
e 162 71
e 162 78
e 162 84
e 162 90
e 162 92
e 162 97
e 162 102
e 162 106
e 162 110
e 162 114
e 162 120
e 162 123
e 162 126
e 162 134
e 162 136
e 162 138
e 162 148
e 162 149
e 162 150
e 162 157
e 162 158
e 162 159
e 162 160
e 162 161
e 163 7
e 163 20
e 163 33
e 163 46
e 163 59
e 163 72
e 163 79
e 163 85
e 163 91
e 163 93
e 163 98
e 163 103
e 163 107
e 163 111
e 163 115
e 163 121
e 163 124
e 163 127
e 163 135
e 163 137
e 163 139
e 163 149
e 163 150
e 163 151
e 163 157
e 163 158
e 163 159
e 163 160
e 163 161
e 163 162
e 164 8
e 164 21
e 164 34
e 164 47
e 164 60
e 164 66
e 164 73
e 164 80
e 164 86
e 164 94
e 164 99
e 164 104
e 164 108
e 164 112
e 164 116
e 164 122
e 164 125
e 164 128
e 164 136
e 164 138
e 164 140
e 164 150
e 164 151
e 164 152
e 164 157
e 164 158
e 164 159
e 164 160
e 164 161
e 164 162
e 164 163
e 165 9
e 165 22
e 165 35
e 165 48
e 165 53
e 165 61
e 165 67
e 165 74
e 165 81
e 165 87
e 165 95
e 165 100
e 165 109
e 165 113
e 165 117
e 165 123
e 165 126
e 165 129
e 165 137
e 165 139
e 165 141
e 165 151
e 165 152
e 165 153
e 165 157
e 165 158
e 165 159
e 165 160
e 165 161
e 165 162
e 165 163
e 165 164
e 166 10
e 166 23
e 166 36
e 166 40
e 166 49
e 166 54
e 166 62
e 166 68
e 166 75
e 166 82
e 166 88
e 166 96
e 166 101
e 166 110
e 166 114
e 166 124
e 166 127
e 166 130
e 166 138
e 166 140
e 166 142
e 166 152
e 166 153
e 166 154
e 166 157
e 166 158
e 166 159
e 166 160
e 166 161
e 166 162
e 166 163
e 166 164
e 166 165
e 167 11
e 167 24
e 167 27
e 167 37
e 167 41
e 167 50
e 167 55
e 167 63
e 167 69
e 167 76
e 167 83
e 167 89
e 167 97
e 167 102
e 167 111
e 167 115
e 167 125
e 167 128
e 167 139
e 167 141
e 167 143
e 167 153
e 167 154
e 167 155
e 167 157
e 167 158
e 167 159
e 167 160
e 167 161
e 167 162
e 167 163
e 167 164
e 167 165
e 167 166
e 168 12
e 168 14
e 168 25
e 168 28
e 168 38
e 168 42
e 168 51
e 168 56
e 168 64
e 168 70
e 168 77
e 168 84
e 168 90
e 168 98
e 168 103
e 168 112
e 168 116
e 168 126
e 168 129
e 168 140
e 168 142
e 168 154
e 168 155
e 168 156
e 168 157
e 168 158
e 168 159
e 168 160
e 168 161
e 168 162
e 168 163
e 168 164
e 168 165
e 168 166
e 168 167
e 169 1
e 169 13
e 169 15
e 169 26
e 169 29
e 169 39
e 169 43
e 169 52
e 169 57
e 169 65
e 169 71
e 169 78
e 169 85
e 169 91
e 169 99
e 169 104
e 169 113
e 169 117
e 169 127
e 169 130
e 169 141
e 169 143
e 169 155
e 169 156
e 169 157
e 169 158
e 169 159
e 169 160
e 169 161
e 169 162
e 169 163
e 169 164
e 169 165
e 169 166
e 169 167
e 169 168
